p edge 50 75
colours 3
e 31 35
e 4 35
e 13 39
e 37 38
e 30 44
e 26 41
e 20 42
e 45 47
e 6 8
e 22 35
e 15 49
e 39 45
e 2 19
e 20 44
e 28 34
e 30 40
e 17 43
e 7 47
e 28 40
e 18 38
e 6 36
e 31 48
e 12 23
e 5 28
e 13 27
e 16 44
e 11 46
e 11 50
e 4 39
e 24 35
e 48 51
e 6 33
e 15 45
e 3 46
e 12 51
e 7 50
e 7 46
e 4 38
e 6 10
e 10 17
e 38 40
e 4 50
e 4 21
e 12 25
e 14 15
e 15 21
e 7 37
e 11 12
e 2 44
e 6 24
e 22 27
e 28 47
e 37 42
e 13 47
e 24 27
e 25 46
e 22 23
e 42 51
e 7 39
e 23 46
e 1 45
e 20 28
e 6 17
e 19 32
e 26 27
e 2 7
e 23 28
e 30 36
e 30 39
e 47 51
e 20 46
e 6 48
e 20 29
e 19 20
e 28 41
